 $CONTRL SCFTYP=RHF RUNTYP=OPTIMIZE DFTTYP=B3LYP $END
 $SYSTEM MWORDS=100 $END
 $BASIS GBASIS=N31 NGAUSS=6 NDFUNC=1 $END
 $SCF DIRSCF=.TRUE. $END
 $GUESS GUESS=HUCKEL $END
 $STATPT NSTEP=100 $END
 $DATA
Water molecule optimization
C1
O      8.0      0.00000000   0.00000000   0.00000000
H      1.0      0.00000000   0.75721500   0.58653500
H      1.0      0.00000000  -0.75721500   0.58653500
 $END
