 $CONTRL SCFTYP=UHF RUNTYP=ENERGY MULT=3 $END
 $SYSTEM MWORDS=200 $END
 $BASIS GBASIS=CC2 $END
 $SCF DIRSCF=.TRUE. $END
 $GUESS GUESS=HUCKEL $END
 $DATA
Si2 molecule - triplet state
Dnh 2

Si     14.0      0.00000000   0.00000000   1.17500000
 $END
