Silicon crystal
1.0
3.840 0.000 0.000
0.000 3.840 0.000
0.000 0.000 3.840
Si
2
Direct
0.00 0.00 0.00
0.25 0.25 0.25
