start H2O

title "DFT calculation for water molecule"

charge 0
multiplicity 1

geometry units angstroms
  O  0.00000000  0.00000000  0.00000000
  H  0.00000000  0.75754318  0.58579789
  H  0.00000000 -0.75754318  0.58579789
end

basis
  * library 6-31G*
end

dft
  xc b3lyp
  mult 1
  direct
  maxiter 100
  convergence energy 1e-6
end

task dft optimize

task dft freq
