%mem=4GB
%nprocshared=16
%chk=benzene_dft.chk
#p B3LYP/6-311+G(d,p) Opt Freq

Benzene DFT optimization with frequency analysis

0 1
C      1.396000     0.000000     0.000000
C      0.698000     1.209000     0.000000
C     -0.698000     1.209000     0.000000
C     -1.396000     0.000000     0.000000
C     -0.698000    -1.209000     0.000000
C      0.698000    -1.209000     0.000000
H      2.482000     0.000000     0.000000
H      1.241000     2.149000     0.000000
H     -1.241000     2.149000     0.000000
H     -2.482000     0.000000     0.000000
H     -1.241000    -2.149000     0.000000
H      1.241000    -2.149000     0.000000

