%mem=4GB
%nprocshared=16
%chk=co_excited.chk
#p B3LYP/6-311+G(d,p) TD(NStates=10) Symm=Loose

Carbon monoxide TD-DFT excited states calculation

0 1
C      0.000000     0.000000     0.000000
O      1.128000     0.000000     0.000000

