%mem=2GB
%nprocshared=8
%chk=ethane_scan.chk
#p MP2/6-31G(d) Opt=ModRedundant

Ethane torsional scan - C-C bond rotation

0 1
C      0.000000     0.000000     0.000000
C      1.526000     0.000000     0.000000
H     -0.380000     1.020000     0.000000
H     -0.380000    -0.510000     0.882000
H     -0.380000    -0.510000    -0.882000
H      1.906000     1.020000     0.000000
H      1.906000    -0.510000     0.882000
H      1.906000    -0.510000    -0.882000

D 2 1 5 6 S 36 10.0

