%mem=4GB
%nprocshared=16
%chk=formaldehyde_nmr.chk
#p B3LYP/6-311+G(2d,p) NMR

Formaldehyde NMR calculation

0 1
C      0.000000     0.000000     0.000000
O      1.210000     0.000000     0.000000
H     -0.540000     0.936000     0.000000
H     -0.540000    -0.936000     0.000000

