%chk=H2O.chk
%mem=1GB
%nproc=4
#p B3LYP/6-31G(d) Opt Freq

Water molecule geometry optimization and frequency calculation

0 1
O   0.000000   0.000000   0.000000
H   0.000000   0.757215   0.586535
H   0.000000  -0.757215   0.586535

