%mem=1GB
%nprocshared=4
%chk=h2o_ir.chk
#p B3LYP/aug-cc-pVTZ Freq=Raman

Water IR and Raman frequency calculation

0 1
O      0.000000     0.000000     0.117790
H      0.000000     0.755453    -0.471161
H      0.000000    -0.755453    -0.471161

