%mem=2GB
%nprocshared=8
%chk=methane_sp.chk
#p HF/6-311++G(d,p) SP

Methane single point energy calculation

0 1
C     0.000000     0.000000     0.000000
H     0.629118     0.629118     0.629118
H    -0.629118    -0.629118     0.629118
H    -0.629118     0.629118    -0.629118
H     0.629118    -0.629118    -0.629118

