%chk=Si2.chk
%mem=2GB
%nproc=8
#p B3LYP/6-31G(d) Opt

Si2 molecule optimization

0 3
Si   0.000000   0.000000   0.000000
Si   0.000000   0.000000   2.350000

