%mem=1GB
%nprocshared=4
%chk=water_opt.chk
#p B3LYP/6-31G(d) Opt Freq

Water molecule geometry optimization and frequency calculation

0 1
O     0.000000     0.000000     0.117790
H     0.000000     0.755453    -0.471161
H     0.000000    -0.755453    -0.471161

